NAME 
ROWS
 N  OBJ
 L  R0      
 L  R1      
 E  R2      
 E  R3      
 E  R4      
 E  R5      
 E  R6      
 E  R7      
 E  R8      
 E  R9      
 E  R10     
 E  R11     
 E  R12     
 E  R13     
 E  R14     
 E  R15     
 E  R16     
 E  R17     
 E  R18     
 E  R19     
 E  R20     
 E  R21     
COLUMNS
    MARKER    'MARKER'                 'INTORG'
    I0(11)    OBJ       163
    I0(11)    R0        -60
    I0(11)    R1        -102
    I0(11)    R2        12
    I0(11)    R3        4
    I0(11)    R4        14
    I0(11)    R7        3
    I0(11)    R8        5
    I0(11)    R9        13
    I0(11)    R11       6
    I0(11)    R13       7
    I0(11)    R21       1
    I1(12)    OBJ       143
    I1(12)    R0        -161
    I1(12)    R1        -58
    I1(12)    R2        17
    I1(12)    R3        5
    I1(12)    R4        5
    I1(12)    R5        7
    I1(12)    R6        6
    I1(12)    R9        18
    I1(12)    R11       17
    I1(12)    R12       13
    I1(12)    R13       9
    I1(12)    R21       1
    I2(13)    OBJ       100
    I2(13)    R0        196
    I2(13)    R1        -106
    I2(13)    R2        4
    I2(13)    R3        12
    I2(13)    R6        14
    I2(13)    R7        10
    I2(13)    R8        12
    I2(13)    R9        15
    I2(13)    R10       15
    I2(13)    R11       2
    I2(13)    R12       1
    I2(13)    R13       14
    I2(13)    R21       1
    I3(15)    OBJ       -157
    I3(15)    R0        -127
    I3(15)    R1        -22
    I3(15)    R2        1
    I3(15)    R3        6
    I3(15)    R4        19
    I3(15)    R5        1
    I3(15)    R6        2
    I3(15)    R7        2
    I3(15)    R8        17
    I3(15)    R9        3
    I3(15)    R10       16
    I3(15)    R11       18
    I3(15)    R12       14
    I3(15)    R13       13
    I3(15)    R21       1
    I4(13)    OBJ       -63
    I4(13)    R0        -150
    I4(13)    R1        -2
    I4(13)    R2        16
    I4(13)    R3        11
    I4(13)    R5        10
    I4(13)    R6        5
    I4(13)    R7        19
    I4(13)    R8        9
    I4(13)    R9        17
    I4(13)    R10       19
    I4(13)    R11       6
    I4(13)    R13       10
    I4(13)    R21       1
    I5(12)    OBJ       91
    I5(12)    R0        -44
    I5(12)    R1        57
    I5(12)    R2        10
    I5(12)    R3        17
    I5(12)    R4        19
    I5(12)    R5        1
    I5(12)    R6        16
    I5(12)    R7        15
    I5(12)    R9        9
    I5(12)    R11       2
    I5(12)    R12       2
    I5(12)    R21       1
    I6(12)    OBJ       -169
    I6(12)    R0        -120
    I6(12)    R1        -106
    I6(12)    R2        13
    I6(12)    R4        12
    I6(12)    R5        12
    I6(12)    R6        18
    I6(12)    R9        19
    I6(12)    R10       4
    I6(12)    R11       19
    I6(12)    R12       19
    I6(12)    R13       8
    I6(12)    R21       1
    I7(13)    OBJ       128
    I7(13)    R0        11
    I7(13)    R1        -191
    I7(13)    R3        13
    I7(13)    R4        1
    I7(13)    R5        9
    I7(13)    R6        6
    I7(13)    R7        16
    I7(13)    R8        11
    I7(13)    R9        7
    I7(13)    R10       13
    I7(13)    R12       11
    I7(13)    R13       15
    I7(13)    R21       1
    I8(14)    OBJ       -68
    I8(14)    R0        -160
    I8(14)    R1        -179
    I8(14)    R2        18
    I8(14)    R3        16
    I8(14)    R4        3
    I8(14)    R5        2
    I8(14)    R6        15
    I8(14)    R8        11
    I8(14)    R9        11
    I8(14)    R10       16
    I8(14)    R11       10
    I8(14)    R12       4
    I8(14)    R13       11
    I8(14)    R21       1
    I9(12)    OBJ       -14
    I9(12)    R0        -119
    I9(12)    R1        22
    I9(12)    R2        10
    I9(12)    R3        15
    I9(12)    R4        4
    I9(12)    R6        6
    I9(12)    R7        12
    I9(12)    R9        17
    I9(12)    R10       18
    I9(12)    R12       10
    I9(12)    R13       16
    I9(12)    R21       1
    I10(14)   OBJ       51
    I10(14)   R0        182
    I10(14)   R1        -131
    I10(14)   R2        1
    I10(14)   R3        13
    I10(14)   R4        10
    I10(14)   R5        16
    I10(14)   R6        2
    I10(14)   R7        16
    I10(14)   R8        6
    I10(14)   R9        2
    I10(14)   R10       11
    I10(14)   R11       1
    I10(14)   R12       8
    I10(14)   R21       1
    I11(11)   OBJ       73
    I11(11)   R0        -58
    I11(11)   R1        188
    I11(11)   R5        16
    I11(11)   R7        15
    I11(11)   R8        10
    I11(11)   R9        2
    I11(11)   R10       8
    I11(11)   R11       3
    I11(11)   R12       14
    I11(11)   R13       18
    I11(11)   R21       1
    MARKER    'MARKER'                 'INTEND'
    C12(17)   OBJ       9
    C12(17)   R0        8
    C12(17)   R2        3
    C12(17)   R3        13
    C12(17)   R4        5
    C12(17)   R5        3
    C12(17)   R6        2
    C12(17)   R7        8
    C12(17)   R9        -1
    C12(17)   R10       4
    C12(17)   R11       12
    C12(17)   R12       17
    C12(17)   R13       9
    C12(17)   R14       6
    C12(17)   R16       5
    C12(17)   R17       7
    C12(17)   R18       18
    C12(17)   R20       4
    C13(16)   OBJ       -4
    C13(16)   R0        -3
    C13(16)   R1        -8
    C13(16)   R2        18
    C13(16)   R5        -1
    C13(16)   R6        14
    C13(16)   R7        4
    C13(16)   R8        12
    C13(16)   R9        2
    C13(16)   R10       2
    C13(16)   R11       2
    C13(16)   R12       19
    C13(16)   R15       13
    C13(16)   R17       19
    C13(16)   R18       17
    C13(16)   R19       18
    C13(16)   R20       15
    C14(16)   OBJ       5
    C14(16)   R0        1
    C14(16)   R1        4
    C14(16)   R2        3
    C14(16)   R3        3
    C14(16)   R4        11
    C14(16)   R6        7
    C14(16)   R7        6
    C14(16)   R9        3
    C14(16)   R10       6
    C14(16)   R11       18
    C14(16)   R12       11
    C14(16)   R15       15
    C14(16)   R16       18
    C14(16)   R17       5
    C14(16)   R19       2
    C14(16)   R20       12
    C15(16)   OBJ       -1
    C15(16)   R0        1
    C15(16)   R1        -5
    C15(16)   R2        8
    C15(16)   R4        10
    C15(16)   R5        10
    C15(16)   R6        14
    C15(16)   R7        3
    C15(16)   R8        17
    C15(16)   R9        15
    C15(16)   R10       2
    C15(16)   R13       5
    C15(16)   R14       7
    C15(16)   R15       8
    C15(16)   R17       13
    C15(16)   R18       10
    C15(16)   R19       15
    C16(13)   OBJ       3
    C16(13)   R0        2
    C16(13)   R1        6
    C16(13)   R2        6
    C16(13)   R5        6
    C16(13)   R9        13
    C16(13)   R11       4
    C16(13)   R12       4
    C16(13)   R13       2
    C16(13)   R14       15
    C16(13)   R16       19
    C16(13)   R17       16
    C16(13)   R18       17
    C16(13)   R19       10
    C17(15)   OBJ       4
    C17(15)   R0        1
    C17(15)   R1        3
    C17(15)   R3        15
    C17(15)   R4        15
    C17(15)   R5        -1
    C17(15)   R7        9
    C17(15)   R8        12
    C17(15)   R9        4
    C17(15)   R11       16
    C17(15)   R14       3
    C17(15)   R15       17
    C17(15)   R16       19
    C17(15)   R17       6
    C17(15)   R19       7
    C17(15)   R20       17
    C18(15)   OBJ       -6
    C18(15)   R0        2
    C18(15)   R1        6
    C18(15)   R2        5
    C18(15)   R4        9
    C18(15)   R5        -1
    C18(15)   R6        14
    C18(15)   R7        8
    C18(15)   R8        19
    C18(15)   R9        10
    C18(15)   R10       3
    C18(15)   R12       5
    C18(15)   R13       8
    C18(15)   R14       8
    C18(15)   R18       9
    C18(15)   R19       10
    C19(19)   OBJ       7
    C19(19)   R0        -8
    C19(19)   R1        -8
    C19(19)   R2        12
    C19(19)   R3        15
    C19(19)   R4        17
    C19(19)   R5        19
    C19(19)   R6        -1
    C19(19)   R7        9
    C19(19)   R8        8
    C19(19)   R9        11
    C19(19)   R12       4
    C19(19)   R13       12
    C19(19)   R14       5
    C19(19)   R15       15
    C19(19)   R16       12
    C19(19)   R17       3
    C19(19)   R18       12
    C19(19)   R19       9
    C19(19)   R20       17
    C20(1)    R2        1
    C21(1)    R3        1
    C22(1)    R4        1
    C23(1)    R5        1
    C24(1)    R6        1
    C25(1)    R7        1
    C26(1)    R8        1
    C27(1)    R9        1
    C28(1)    R10       1
    C29(1)    R11       1
    C30(1)    R12       1
    C31(1)    R13       1
    C32(1)    R14       1
    C33(1)    R15       1
    C34(1)    R16       1
    C35(1)    R17       1
    C36(1)    R18       1
    C37(1)    R19       1
    C38(1)    R20       1
    C39(1)    R21       1
RHS
    RHS1      R0        -4.9028571428571433e+02
    RHS1      R1        -2.4485714285714295e+02
    RHS1      R2        58
    RHS1      R3        56
    RHS1      R4        99
    RHS1      R5        67
    RHS1      R6        66
    RHS1      R7        95
    RHS1      R8        99
    RHS1      R9        96
    RHS1      R10       89
    RHS1      R11       76
    RHS1      R12       84
    RHS1      R13       61
    RHS1      R14       73
    RHS1      R15       93
    RHS1      R16       57
    RHS1      R17       60
    RHS1      R18       53
    RHS1      R19       50
    RHS1      R20       68
    RHS1      R21       4
BOUNDS
 UP BND1      I0(11)    2
 UP BND1      I1(12)    2
 UP BND1      I2(13)    2
 UP BND1      I3(15)    2
 UP BND1      I4(13)    2
 UP BND1      I5(12)    2
 UP BND1      I6(12)    2
 UP BND1      I7(13)    2
 UP BND1      I8(14)    2
 UP BND1      I9(12)    2
 UP BND1      I10(14)   2
 UP BND1      I11(11)   2
ENDATA
